out/bwp_11_11_1_lp.out
3
0 -0    0 1
2 -0    3 0
5 1    5 2
1 2    2 2
4 -0    4 0
6 -0    6 0
6 1    6 1
-0 2    0 2
4 2    4 2
10 2    10 2
7 -0    9 2
