out/bwp_11_11_1_lp.log
Tried aggregator 2 times.
MIP Presolve eliminated 18 rows and 8 columns.
MIP Presolve modified 262 coefficients.
Aggregator did 262 substitutions.
Reduced MIP has 1204 rows, 1085 columns, and 2932 nonzeros.
Reduced MIP has 664 binaries, 23 generals, 0 SOSs, and 440 indicators.
Presolve time = 0.01 sec. (3.29 ticks)
Found incumbent of value 17.000000 after 0.01 sec. (5.41 ticks)
Probing fixed 63 vars, tightened 164 bounds.
Probing time = 0.04 sec. (12.90 ticks)
Tried aggregator 3 times.
MIP Presolve eliminated 102 rows and 96 columns.
MIP Presolve modified 296 coefficients.
Aggregator did 306 substitutions.
Reduced MIP has 796 rows, 683 columns, and 2080 nonzeros.
Reduced MIP has 476 binaries, 207 generals, 0 SOSs, and 398 indicators.
Presolve time = 0.01 sec. (3.85 ticks)
Probing time = 0.01 sec. (3.84 ticks)
Tried aggregator 1 time.
Reduced MIP has 796 rows, 683 columns, and 2080 nonzeros.
Reduced MIP has 476 binaries, 207 generals, 0 SOSs, and 398 indicators.
Presolve time = 0.00 sec. (0.99 ticks)
Probing time = 0.01 sec. (2.18 ticks)
Clique table members: 114.
MIP emphasis: balance optimality and feasibility.
MIP search method: dynamic search.
Parallel mode: deterministic, using up to 4 threads.
Root relaxation solution time = 0.00 sec. (1.94 ticks)

        Nodes                                         Cuts/
   Node  Left     Objective  IInf  Best Integer    Best Bound    ItCnt     Gap

*     0+    0                           17.0000        3.0000      245   82.35%
      0     0        3.0000   270       17.0000        3.0000      245   82.35%
      0     0        3.0000    83       17.0000      Cuts: 51      291   82.35%
      0     0        3.0000   195       17.0000      Cuts: 89      368   82.35%
      0     0        3.0000    97       17.0000       Cuts: 5      383   82.35%
      0     0        3.0000   103       17.0000      Cuts: 51      412   82.35%
*     0+    0                            6.0000        3.0000      412   50.00%
*     0+    0                            4.0000        3.0000      412   25.00%
*     0+    0                            3.0000        3.0000      412    0.00%
      0     0        cutoff              3.0000        3.0000      412    0.00%
Elapsed time = 0.28 sec. (105.25 ticks, tree = 0.00 MB, solutions = 4)

Clique cuts applied:  2
Implied bound cuts applied:  25
Zero-half cuts applied:  10
Gomory fractional cuts applied:  15

Root node processing (before b&c):
  Real time             =    0.28 sec. (105.30 ticks)
Parallel b&c, 4 threads:
  Real time             =    0.00 sec. (0.00 ticks)
  Sync time (average)   =    0.00 sec.
  Wait time (average)   =    0.00 sec.
                          ------------
Total (root+branch&cut) =    0.28 sec. (105.30 ticks)
